NAME :
TYPE : CCVRP
COMMENT :
DIMENSION : 484
CAPACITY : 1000
EDGE_WEIGHT_TYPE : EUC_2D_DBL
NODE_COORD_TYPE: TWOD_COORD
NODE_COORD_SECTION
1 0.0000 -21.0000
2 -1.0000 -20.0000
3 1.0000 -20.0000
4 -2.0000 -19.0000
5 0.0000 -19.0000
6 2.0000 -19.0000
7 -3.0000 -18.0000
8 -1.0000 -18.0000
9 1.0000 -18.0000
10 3.0000 -18.0000
11 -4.0000 -17.0000
12 -2.0000 -17.0000
13 0.0000 -17.0000
14 2.0000 -17.0000
15 4.0000 -17.0000
16 -5.0000 -16.0000
17 -3.0000 -16.0000
18 -1.0000 -16.0000
19 1.0000 -16.0000
20 3.0000 -16.0000
21 5.0000 -16.0000
22 -6.0000 -15.0000
23 -4.0000 -15.0000
24 -2.0000 -15.0000
25 0.0000 -15.0000
26 2.0000 -15.0000
27 4.0000 -15.0000
28 6.0000 -15.0000
29 -7.0000 -14.0000
30 -5.0000 -14.0000
31 -3.0000 -14.0000
32 -1.0000 -14.0000
33 1.0000 -14.0000
34 3.0000 -14.0000
35 5.0000 -14.0000
36 7.0000 -14.0000
37 -8.0000 -13.0000
38 -6.0000 -13.0000
39 -4.0000 -13.0000
40 -2.0000 -13.0000
41 0.0000 -13.0000
42 2.0000 -13.0000
43 4.0000 -13.0000
44 6.0000 -13.0000
45 8.0000 -13.0000
46 -9.0000 -12.0000
47 -7.0000 -12.0000
48 -5.0000 -12.0000
49 -3.0000 -12.0000
50 -1.0000 -12.0000
51 1.0000 -12.0000
52 3.0000 -12.0000
53 5.0000 -12.0000
54 7.0000 -12.0000
55 9.0000 -12.0000
56 -10.0000 -11.0000
57 -8.0000 -11.0000
58 -6.0000 -11.0000
59 -4.0000 -11.0000
60 -2.0000 -11.0000
61 0.0000 -11.0000
62 2.0000 -11.0000
63 4.0000 -11.0000
64 6.0000 -11.0000
65 8.0000 -11.0000
66 10.0000 -11.0000
67 -11.0000 -10.0000
68 -9.0000 -10.0000
69 -7.0000 -10.0000
70 -5.0000 -10.0000
71 -3.0000 -10.0000
72 -1.0000 -10.0000
73 1.0000 -10.0000
74 3.0000 -10.0000
75 5.0000 -10.0000
76 7.0000 -10.0000
77 9.0000 -10.0000
78 11.0000 -10.0000
79 -12.0000 -9.0000
80 -10.0000 -9.0000
81 -8.0000 -9.0000
82 -6.0000 -9.0000
83 -4.0000 -9.0000
84 -2.0000 -9.0000
85 0.0000 -9.0000
86 2.0000 -9.0000
87 4.0000 -9.0000
88 6.0000 -9.0000
89 8.0000 -9.0000
90 10.0000 -9.0000
91 12.0000 -9.0000
92 -13.0000 -8.0000
93 -11.0000 -8.0000
94 -9.0000 -8.0000
95 -7.0000 -8.0000
96 -5.0000 -8.0000
97 -3.0000 -8.0000
98 -1.0000 -8.0000
99 1.0000 -8.0000
100 3.0000 -8.0000
101 5.0000 -8.0000
102 7.0000 -8.0000
103 9.0000 -8.0000
104 11.0000 -8.0000
105 13.0000 -8.0000
106 -14.0000 -7.0000
107 -12.0000 -7.0000
108 -10.0000 -7.0000
109 -8.0000 -7.0000
110 -6.0000 -7.0000
111 -4.0000 -7.0000
112 -2.0000 -7.0000
113 0.0000 -7.0000
114 2.0000 -7.0000
115 4.0000 -7.0000
116 6.0000 -7.0000
117 8.0000 -7.0000
118 10.0000 -7.0000
119 12.0000 -7.0000
120 14.0000 -7.0000
121 -15.0000 -6.0000
122 -13.0000 -6.0000
123 -11.0000 -6.0000
124 -9.0000 -6.0000
125 -7.0000 -6.0000
126 -5.0000 -6.0000
127 -3.0000 -6.0000
128 -1.0000 -6.0000
129 1.0000 -6.0000
130 3.0000 -6.0000
131 5.0000 -6.0000
132 7.0000 -6.0000
133 9.0000 -6.0000
134 11.0000 -6.0000
135 13.0000 -6.0000
136 15.0000 -6.0000
137 -16.0000 -5.0000
138 -14.0000 -5.0000
139 -12.0000 -5.0000
140 -10.0000 -5.0000
141 -8.0000 -5.0000
142 -6.0000 -5.0000
143 -4.0000 -5.0000
144 -2.0000 -5.0000
145 0.0000 -5.0000
146 2.0000 -5.0000
147 4.0000 -5.0000
148 6.0000 -5.0000
149 8.0000 -5.0000
150 10.0000 -5.0000
151 12.0000 -5.0000
152 14.0000 -5.0000
153 16.0000 -5.0000
154 -17.0000 -4.0000
155 -15.0000 -4.0000
156 -13.0000 -4.0000
157 -11.0000 -4.0000
158 -9.0000 -4.0000
159 -7.0000 -4.0000
160 -5.0000 -4.0000
161 -3.0000 -4.0000
162 -1.0000 -4.0000
163 1.0000 -4.0000
164 3.0000 -4.0000
165 5.0000 -4.0000
166 7.0000 -4.0000
167 9.0000 -4.0000
168 11.0000 -4.0000
169 13.0000 -4.0000
170 15.0000 -4.0000
171 17.0000 -4.0000
172 -18.0000 -3.0000
173 -16.0000 -3.0000
174 -14.0000 -3.0000
175 -12.0000 -3.0000
176 -10.0000 -3.0000
177 -8.0000 -3.0000
178 -6.0000 -3.0000
179 -4.0000 -3.0000
180 -2.0000 -3.0000
181 0.0000 -3.0000
182 2.0000 -3.0000
183 4.0000 -3.0000
184 6.0000 -3.0000
185 8.0000 -3.0000
186 10.0000 -3.0000
187 12.0000 -3.0000
188 14.0000 -3.0000
189 16.0000 -3.0000
190 18.0000 -3.0000
191 -19.0000 -2.0000
192 -17.0000 -2.0000
193 -15.0000 -2.0000
194 -13.0000 -2.0000
195 -11.0000 -2.0000
196 -9.0000 -2.0000
197 -7.0000 -2.0000
198 -5.0000 -2.0000
199 -3.0000 -2.0000
200 -1.0000 -2.0000
201 1.0000 -2.0000
202 3.0000 -2.0000
203 5.0000 -2.0000
204 7.0000 -2.0000
205 9.0000 -2.0000
206 11.0000 -2.0000
207 13.0000 -2.0000
208 15.0000 -2.0000
209 17.0000 -2.0000
210 19.0000 -2.0000
211 -20.0000 -1.0000
212 -18.0000 -1.0000
213 -16.0000 -1.0000
214 -14.0000 -1.0000
215 -12.0000 -1.0000
216 -10.0000 -1.0000
217 -8.0000 -1.0000
218 -6.0000 -1.0000
219 -4.0000 -1.0000
220 -2.0000 -1.0000
221 0.0000 -1.0000
222 2.0000 -1.0000
223 4.0000 -1.0000
224 6.0000 -1.0000
225 8.0000 -1.0000
226 10.0000 -1.0000
227 12.0000 -1.0000
228 14.0000 -1.0000
229 16.0000 -1.0000
230 18.0000 -1.0000
231 20.0000 -1.0000
232 -21.0000 0.0000
233 -19.0000 0.0000
234 -17.0000 0.0000
235 -15.0000 0.0000
236 -13.0000 0.0000
237 -11.0000 0.0000
238 -9.0000 0.0000
239 -7.0000 0.0000
240 -5.0000 0.0000
241 -3.0000 0.0000
242 -1.0000 0.0000
243 1.0000 0.0000
244 3.0000 0.0000
245 5.0000 0.0000
246 7.0000 0.0000
247 9.0000 0.0000
248 11.0000 0.0000
249 13.0000 0.0000
250 15.0000 0.0000
251 17.0000 0.0000
252 19.0000 0.0000
253 21.0000 0.0000
254 -20.0000 1.0000
255 -18.0000 1.0000
256 -16.0000 1.0000
257 -14.0000 1.0000
258 -12.0000 1.0000
259 -10.0000 1.0000
260 -8.0000 1.0000
261 -6.0000 1.0000
262 -4.0000 1.0000
263 -2.0000 1.0000
264 0.0000 1.0000
265 2.0000 1.0000
266 4.0000 1.0000
267 6.0000 1.0000
268 8.0000 1.0000
269 10.0000 1.0000
270 12.0000 1.0000
271 14.0000 1.0000
272 16.0000 1.0000
273 18.0000 1.0000
274 20.0000 1.0000
275 -19.0000 2.0000
276 -17.0000 2.0000
277 -15.0000 2.0000
278 -13.0000 2.0000
279 -11.0000 2.0000
280 -9.0000 2.0000
281 -7.0000 2.0000
282 -5.0000 2.0000
283 -3.0000 2.0000
284 -1.0000 2.0000
285 1.0000 2.0000
286 3.0000 2.0000
287 5.0000 2.0000
288 7.0000 2.0000
289 9.0000 2.0000
290 11.0000 2.0000
291 13.0000 2.0000
292 15.0000 2.0000
293 17.0000 2.0000
294 19.0000 2.0000
295 -18.0000 3.0000
296 -16.0000 3.0000
297 -14.0000 3.0000
298 -12.0000 3.0000
299 -10.0000 3.0000
300 -8.0000 3.0000
301 -6.0000 3.0000
302 -4.0000 3.0000
303 -2.0000 3.0000
304 0.0000 3.0000
305 2.0000 3.0000
306 4.0000 3.0000
307 6.0000 3.0000
308 8.0000 3.0000
309 10.0000 3.0000
310 12.0000 3.0000
311 14.0000 3.0000
312 16.0000 3.0000
313 18.0000 3.0000
314 -17.0000 4.0000
315 -15.0000 4.0000
316 -13.0000 4.0000
317 -11.0000 4.0000
318 -9.0000 4.0000
319 -7.0000 4.0000
320 -5.0000 4.0000
321 -3.0000 4.0000
322 -1.0000 4.0000
323 1.0000 4.0000
324 3.0000 4.0000
325 5.0000 4.0000
326 7.0000 4.0000
327 9.0000 4.0000
328 11.0000 4.0000
329 13.0000 4.0000
330 15.0000 4.0000
331 17.0000 4.0000
332 -16.0000 5.0000
333 -14.0000 5.0000
334 -12.0000 5.0000
335 -10.0000 5.0000
336 -8.0000 5.0000
337 -6.0000 5.0000
338 -4.0000 5.0000
339 -2.0000 5.0000
340 0.0000 5.0000
341 2.0000 5.0000
342 4.0000 5.0000
343 6.0000 5.0000
344 8.0000 5.0000
345 10.0000 5.0000
346 12.0000 5.0000
347 14.0000 5.0000
348 16.0000 5.0000
349 -15.0000 6.0000
350 -13.0000 6.0000
351 -11.0000 6.0000
352 -9.0000 6.0000
353 -7.0000 6.0000
354 -5.0000 6.0000
355 -3.0000 6.0000
356 -1.0000 6.0000
357 1.0000 6.0000
358 3.0000 6.0000
359 5.0000 6.0000
360 7.0000 6.0000
361 9.0000 6.0000
362 11.0000 6.0000
363 13.0000 6.0000
364 15.0000 6.0000
365 -14.0000 7.0000
366 -12.0000 7.0000
367 -10.0000 7.0000
368 -8.0000 7.0000
369 -6.0000 7.0000
370 -4.0000 7.0000
371 -2.0000 7.0000
372 0.0000 7.0000
373 2.0000 7.0000
374 4.0000 7.0000
375 6.0000 7.0000
376 8.0000 7.0000
377 10.0000 7.0000
378 12.0000 7.0000
379 14.0000 7.0000
380 -13.0000 8.0000
381 -11.0000 8.0000
382 -9.0000 8.0000
383 -7.0000 8.0000
384 -5.0000 8.0000
385 -3.0000 8.0000
386 -1.0000 8.0000
387 1.0000 8.0000
388 3.0000 8.0000
389 5.0000 8.0000
390 7.0000 8.0000
391 9.0000 8.0000
392 11.0000 8.0000
393 13.0000 8.0000
394 -12.0000 9.0000
395 -10.0000 9.0000
396 -8.0000 9.0000
397 -6.0000 9.0000
398 -4.0000 9.0000
399 -2.0000 9.0000
400 0.0000 9.0000
401 2.0000 9.0000
402 4.0000 9.0000
403 6.0000 9.0000
404 8.0000 9.0000
405 10.0000 9.0000
406 12.0000 9.0000
407 -11.0000 10.0000
408 -9.0000 10.0000
409 -7.0000 10.0000
410 -5.0000 10.0000
411 -3.0000 10.0000
412 -1.0000 10.0000
413 1.0000 10.0000
414 3.0000 10.0000
415 5.0000 10.0000
416 7.0000 10.0000
417 9.0000 10.0000
418 11.0000 10.0000
419 -10.0000 11.0000
420 -8.0000 11.0000
421 -6.0000 11.0000
422 -4.0000 11.0000
423 -2.0000 11.0000
424 0.0000 11.0000
425 2.0000 11.0000
426 4.0000 11.0000
427 6.0000 11.0000
428 8.0000 11.0000
429 10.0000 11.0000
430 -9.0000 12.0000
431 -7.0000 12.0000
432 -5.0000 12.0000
433 -3.0000 12.0000
434 -1.0000 12.0000
435 1.0000 12.0000
436 3.0000 12.0000
437 5.0000 12.0000
438 7.0000 12.0000
439 9.0000 12.0000
440 -8.0000 13.0000
441 -6.0000 13.0000
442 -4.0000 13.0000
443 -2.0000 13.0000
444 0.0000 13.0000
445 2.0000 13.0000
446 4.0000 13.0000
447 6.0000 13.0000
448 8.0000 13.0000
449 -7.0000 14.0000
450 -5.0000 14.0000
451 -3.0000 14.0000
452 -1.0000 14.0000
453 1.0000 14.0000
454 3.0000 14.0000
455 5.0000 14.0000
456 7.0000 14.0000
457 -6.0000 15.0000
458 -4.0000 15.0000
459 -2.0000 15.0000
460 0.0000 15.0000
461 2.0000 15.0000
462 4.0000 15.0000
463 6.0000 15.0000
464 -5.0000 16.0000
465 -3.0000 16.0000
466 -1.0000 16.0000
467 1.0000 16.0000
468 3.0000 16.0000
469 5.0000 16.0000
470 -4.0000 17.0000
471 -2.0000 17.0000
472 0.0000 17.0000
473 2.0000 17.0000
474 4.0000 17.0000
475 -3.0000 18.0000
476 -1.0000 18.0000
477 1.0000 18.0000
478 3.0000 18.0000
479 -2.0000 19.0000
480 0.0000 19.0000
481 2.0000 19.0000
482 -1.0000 20.0000
483 1.0000 20.0000
484 0.0000 21.0000
DEMAND_SECTION
1 0
2 300
3 300
4 180
5 300
6 180
7 128
8 180
9 180
10 128
11 100
12 128
13 180
14 128
15 100
16 81
17 100
18 128
19 128
20 100
21 81
22 69
23 81
24 100
25 128
26 100
27 81
28 69
29 60
30 69
31 81
32 100
33 100
34 81
35 69
36 60
37 52
38 60
39 69
40 81
41 100
42 81
43 69
44 60
45 52
46 47
47 52
48 60
49 69
50 81
51 81
52 69
53 60
54 52
55 47
56 42
57 47
58 52
59 60
60 69
61 81
62 69
63 60
64 52
65 47
66 42
67 39
68 42
69 47
70 52
71 60
72 69
73 69
74 60
75 52
76 47
77 42
78 39
79 36
80 39
81 42
82 47
83 52
84 60
85 69
86 60
87 52
88 47
89 42
90 39
91 36
92 33
93 36
94 39
95 42
96 47
97 52
98 60
99 60
100 52
101 47
102 42
103 39
104 36
105 33
106 31
107 33
108 36
109 39
110 42
111 47
112 52
113 60
114 52
115 47
116 42
117 39
118 36
119 33
120 31
121 29
122 31
123 33
124 36
125 39
126 42
127 47
128 52
129 52
130 47
131 42
132 39
133 36
134 33
135 31
136 29
137 27
138 29
139 31
140 33
141 36
142 39
143 42
144 47
145 52
146 47
147 42
148 39
149 36
150 33
151 31
152 29
153 27
154 25
155 27
156 29
157 31
158 33
159 36
160 39
161 42
162 47
163 47
164 42
165 39
166 36
167 33
168 31
169 29
170 27
171 25
172 24
173 25
174 27
175 29
176 31
177 33
178 36
179 39
180 42
181 47
182 42
183 39
184 36
185 33
186 31
187 29
188 27
189 25
190 24
191 23
192 24
193 25
194 27
195 29
196 31
197 33
198 36
199 39
200 42
201 42
202 39
203 36
204 33
205 31
206 29
207 27
208 25
209 24
210 23
211 21
212 23
213 24
214 25
215 27
216 29
217 31
218 33
219 36
220 39
221 42
222 39
223 36
224 33
225 31
226 29
227 27
228 25
229 24
230 23
231 21
232 20
233 21
234 23
235 24
236 25
237 27
238 29
239 31
240 33
241 36
242 39
243 39
244 36
245 33
246 31
247 29
248 27
249 25
250 24
251 23
252 21
253 20
254 20
255 21
256 23
257 24
258 25
259 27
260 29
261 31
262 33
263 36
264 39
265 36
266 33
267 31
268 29
269 27
270 25
271 24
272 23
273 21
274 20
275 20
276 21
277 23
278 24
279 25
280 27
281 29
282 31
283 33
284 36
285 36
286 33
287 31
288 29
289 27
290 25
291 24
292 23
293 21
294 20
295 20
296 21
297 23
298 24
299 25
300 27
301 29
302 31
303 33
304 36
305 33
306 31
307 29
308 27
309 25
310 24
311 23
312 21
313 20
314 20
315 21
316 23
317 24
318 25
319 27
320 29
321 31
322 33
323 33
324 31
325 29
326 27
327 25
328 24
329 23
330 21
331 20
332 20
333 21
334 23
335 24
336 25
337 27
338 29
339 31
340 33
341 31
342 29
343 27
344 25
345 24
346 23
347 21
348 20
349 20
350 21
351 23
352 24
353 25
354 27
355 29
356 31
357 31
358 29
359 27
360 25
361 24
362 23
363 21
364 20
365 20
366 21
367 23
368 24
369 25
370 27
371 29
372 31
373 29
374 27
375 25
376 24
377 23
378 21
379 20
380 20
381 21
382 23
383 24
384 25
385 27
386 29
387 29
388 27
389 25
390 24
391 23
392 21
393 20
394 20
395 21
396 23
397 24
398 25
399 27
400 29
401 27
402 25
403 24
404 23
405 21
406 20
407 20
408 21
409 23
410 24
411 25
412 27
413 27
414 25
415 24
416 23
417 21
418 20
419 20
420 21
421 23
422 24
423 25
424 27
425 25
426 24
427 23
428 21
429 20
430 20
431 21
432 23
433 24
434 25
435 25
436 24
437 23
438 21
439 20
440 20
441 21
442 23
443 24
444 25
445 24
446 23
447 21
448 20
449 20
450 21
451 23
452 24
453 24
454 23
455 21
456 20
457 20
458 21
459 23
460 24
461 23
462 21
463 20
464 20
465 21
466 23
467 23
468 21
469 20
470 20
471 21
472 23
473 21
474 20
475 20
476 21
477 21
478 20
479 20
480 21
481 20
482 20
483 20
484 20
CLUSTER_SECTION
1 21
2 2
3 3
4 2
5 2
6 3
7 4
8 3
9 3
10 3
11 4
12 4
13 4
14 5
15 5
16 4
17 4
18 4
19 5
20 5
21 5
22 6
23 4
24 6
25 5
26 5
27 5
28 7
29 6
30 6
31 6
32 8
33 5
34 7
35 7
36 7
37 6
38 6
39 6
40 6
41 8
42 7
43 7
44 7
45 7
46 6
47 6
48 6
49 6
50 8
51 8
52 7
53 7
54 7
55 7
56 9
57 6
58 6
59 8
60 8
61 8
62 8
63 7
64 7
65 7
66 10
67 9
68 9
69 9
70 8
71 8
72 8
73 8
74 8
75 10
76 10
77 10
78 10
79 9
80 9
81 9
82 9
83 9
84 11
85 11
86 11
87 10
88 10
89 10
90 10
91 10
92 9
93 9
94 9
95 9
96 9
97 11
98 11
99 11
100 11
101 10
102 10
103 10
104 10
105 10
106 9
107 9
108 9
109 9
110 9
111 11
112 11
113 11
114 11
115 12
116 10
117 10
118 10
119 10
120 10
121 13
122 9
123 9
124 9
125 9
126 11
127 11
128 11
129 11
130 12
131 12
132 10
133 10
134 10
135 10
136 14
137 13
138 13
139 9
140 9
141 13
142 15
143 11
144 11
145 11
146 12
147 12
148 12
149 10
150 12
151 14
152 14
153 14
154 13
155 13
156 13
157 13
158 13
159 13
160 15
161 15
162 12
163 12
164 12
165 12
166 12
167 12
168 14
169 14
170 14
171 14
172 13
173 13
174 13
175 13
176 13
177 13
178 15
179 15
180 15
181 12
182 12
183 12
184 12
185 12
186 14
187 14
188 14
189 14
190 14
191 13
192 13
193 13
194 13
195 13
196 13
197 15
198 15
199 15
200 15
201 12
202 12
203 12
204 12
205 14
206 14
207 14
208 14
209 14
210 14
211 13
212 13
213 13
214 13
215 13
216 13
217 15
218 15
219 15
220 15
221 15
222 12
223 12
224 12
225 14
226 14
227 14
228 14
229 14
230 14
231 14
232 16
233 13
234 13
235 13
236 13
237 13
238 15
239 15
240 15
241 15
242 15
243 17
244 17
245 17
246 17
247 14
248 14
249 14
250 14
251 14
252 14
253 14
254 16
255 13
256 13
257 13
258 13
259 15
260 15
261 15
262 15
263 15
264 17
265 17
266 17
267 17
268 18
269 14
270 14
271 14
272 14
273 14
274 18
275 16
276 16
277 16
278 16
279 16
280 15
281 15
282 15
283 17
284 17
285 17
286 17
287 17
288 17
289 18
290 18
291 18
292 18
293 18
294 18
295 16
296 16
297 16
298 16
299 16
300 16
301 16
302 17
303 17
304 17
305 17
306 17
307 17
308 18
309 18
310 18
311 18
312 18
313 18
314 16
315 16
316 16
317 16
318 16
319 16
320 19
321 17
322 17
323 17
324 17
325 17
326 18
327 18
328 18
329 18
330 18
331 18
332 16
333 16
334 16
335 16
336 16
337 16
338 18
339 17
340 17
341 17
342 1
343 1
344 1
345 1
346 18
347 18
348 18
349 16
350 16
351 16
352 16
353 16
354 19
355 18
356 17
357 17
358 1
359 1
360 1
361 1
362 1
363 18
364 18
365 16
366 16
367 16
368 16
369 19
370 19
371 18
372 18
373 1
374 1
375 1
376 1
377 1
378 1
379 18
380 16
381 16
382 16
383 19
384 19
385 19
386 18
387 18
388 1
389 1
390 1
391 1
392 1
393 18
394 16
395 16
396 16
397 19
398 19
399 18
400 18
401 18
402 1
403 1
404 1
405 1
406 18
407 16
408 16
409 19
410 19
411 19
412 18
413 18
414 1
415 1
416 1
417 1
418 1
419 16
420 19
421 19
422 19
423 19
424 18
425 18
426 1
427 1
428 1
429 1
430 19
431 19
432 19
433 19
434 19
435 19
436 1
437 1
438 1
439 1
440 19
441 19
442 19
443 19
444 19
445 19
446 1
447 1
448 1
449 19
450 19
451 19
452 19
453 19
454 19
455 1
456 1
457 19
458 19
459 19
460 19
461 19
462 20
463 20
464 19
465 19
466 19
467 20
468 20
469 20
470 20
471 20
472 20
473 20
474 20
475 20
476 20
477 20
478 20
479 20
480 20
481 20
482 20
483 20
484 20
DEPOT_SECTION
1
-1
EOF
